35
3 0 4
3 2 4
4 0 3
4 2 2
5 0 2
5 1 4
5 2 3
5 4 5
6 0 3
6 1 2
6 2 4
6 3 2
6 5 1
7 1 2
7 2 5
7 3 5
7 6 1
8 1 1
8 3 2
8 4 4
8 5 4
9 0 2
9 2 3
9 6 4
9 8 2
10 4 3
10 9 4
11 0 4
11 2 5
11 4 5
11 5 3
11 8 3
12 2 3
12 4 2
12 8 2
12 9 2
12 11 5
13 0 2
13 3 5
13 4 2
13 5 2
13 6 5
13 7 5
13 8 1
13 10 2
13 11 3
13 12 1
14 0 4
14 2 1
14 3 3
14 4 1
14 5 1
14 6 5
14 7 1
14 8 2
14 12 5
15 2 3
15 3 2
15 4 3
15 6 3
15 7 4
15 8 5
15 9 1
15 12 1
15 13 3
15 14 1
16 0 3
16 1 4
16 3 1
16 4 5
16 7 4
16 9 5
16 10 3
16 13 5
16 14 5
16 15 1
17 0 5
17 5 3
17 7 4
17 8 3
17 13 1
17 14 1
17 15 1
17 16 4
18 0 5
18 2 1
18 3 5
18 4 5
18 5 5
18 7 4
18 11 2
18 12 5
18 17 5
19 0 4
19 1 2
19 2 4
19 3 2
19 4 2
19 7 2
19 10 2
19 14 5
20 2 4
20 3 4
20 4 3
20 5 2
20 6 5
20 10 2
20 11 5
20 12 2
20 13 3
20 14 5
20 19 5
21 1 4
21 2 2
21 5 1
21 8 4
21 10 2
21 13 4
21 14 2
21 15 2
21 18 2
21 19 3
21 20 3
22 0 1
22 1 1
22 2 3
22 3 5
22 5 1
22 7 1
22 9 1
22 12 2
22 14 5
22 15 1
22 16 2
22 21 1
23 0 3
23 1 3
23 2 2
23 3 1
23 5 5
23 6 3
23 7 3
23 9 1
23 10 2
23 13 3
23 15 1
23 16 3
23 18 3
23 20 2
23 21 3
23 22 4
24 3 2
24 4 4
24 8 2
24 10 5
24 15 1
24 17 5
24 19 4
24 20 5
24 22 1
25 0 4
25 3 5
25 5 4
25 7 5
25 9 2
25 12 5
25 13 2
25 14 3
25 16 1
25 18 1
25 22 1
25 23 1
26 0 1
26 3 1
26 4 2
26 7 5
26 9 4
26 11 3
26 14 1
26 16 1
26 17 3
26 22 4
26 23 3
27 1 5
27 5 4
27 8 1
27 10 3
27 12 5
27 14 1
27 16 3
27 20 3
27 25 2
28 1 5
28 3 3
28 5 4
28 8 3
28 10 3
28 12 4
28 14 1
28 16 1
28 18 4
28 19 5
28 21 2
28 22 5
28 24 2
28 26 5
29 3 5
29 7 1
29 13 3
29 15 3
29 17 2
29 19 4
29 21 4
29 22 5
29 23 1
29 24 2
29 26 5
29 27 4
30 0 5
30 5 1
30 7 3
30 10 2
30 15 1
30 16 3
30 17 2
30 18 4
30 19 1
30 20 2
30 25 1
30 27 3
30 29 1
31 0 5
31 1 3
31 2 2
31 3 1
31 4 3
31 6 1
31 8 1
31 9 5
31 10 2
31 11 4
31 12 2
31 14 3
31 15 2
31 20 2
31 21 2
31 22 3
31 23 2
31 25 2
31 26 2
31 28 5
31 29 4
31 30 1
32 1 5
32 4 1
32 5 4
32 6 3
32 12 5
32 14 4
32 15 1
32 18 4
32 23 3
32 24 4
32 25 5
32 26 1
32 28 3
32 30 2
33 1 5
33 11 2
33 13 3
33 14 1
33 17 3
33 21 5
33 24 3
33 25 2
33 26 2
33 27 2
33 29 2
33 31 4
34 0 2
34 1 3
34 3 3
34 6 3
34 9 5
34 11 5
34 13 5
34 14 1
34 16 2
34 17 2
34 21 4
34 26 1
34 30 5
34 32 4
